num_tests = 7;
num_machines = 3;
num_resources = 1;


durations = [4, 3, 4, 1, 2, 3, 5];

machines_allowed = [{1, 2, 3}, {1, 2, 3}, {1, 2, 3}, {1}, {2}, {3}, {1, 3}];

resources_allowed = [{1, 2, 3}];

have_resources = [true, true, true, false, false, false, false];